# Solution for model r5_t18_m7_6
# Finished Task: 18 / 18
# Makespan: 560.0, Total Distance: 341.0, Total Time: 121.2656
# R O S F
0 0 10 28.0 28.0
1 1 8 11.0 11.0
2 2 6 35.0 35.0
3 3 5 62.0 62.0
4 4 9 0.0 0.0
5 3 17 421.0 443.0
6 2 22 307.0 332.0
7 0 12 355.0 393.0
8 1 15 293.0 314.0
9 4 19 283.0 307.0
10 0 7 273.0 303.0
11 2 14 478.0 498.0
12 0 18 393.0 421.0
13 1 -1 523.0 560.0
14 2 -1 530.0 560.0
15 1 16 378.0 409.0
16 1 21 440.0 463.0
17 3 20 452.0 481.0
18 0 -1 442.0 472.0
19 4 -1 502.0 532.0
20 3 -1 524.0 560.0
21 1 13 472.0 502.0
22 2 11 438.0 467.0
